param a := 0.0025;
param b := 0.01;
param c := 833.3325;
param d := 100;
param e := 83333.33;
param f := 1250;
param g := 1250000;
param h := 2500;

var x :=
    1  5000   2  5000   3  5000   4  200   5  350   6  150   7  225   8  425;
